
List of user-set options:

                                    Name   Value                used
                           compl_inf_tol = 1                     yes
                         constr_viol_tol = 1                     yes
                            dual_inf_tol = 1000                  yes
                           linear_solver = ma97                  yes
                              ma86_small = 1e-30                  no
                                  ma86_u = 0.0001                 no
                              ma97_order = best                  yes
                              ma97_small = 1e-30                 yes
                            ma97_switch1 = at_start              yes
                            ma97_switch2 = od_hd_reuse           yes
                                  ma97_u = 1e-06                 yes
                               ma97_umax = 0.5                   yes
                                max_iter = 1000                  yes
                    max_refinement_steps = 20                    yes
                    min_refinement_steps = 5                     yes
                                 mu_init = 1e-06                 yes
           mu_superlinear_decrease_power = 1.25                  yes
                   nlp_scaling_min_value = 1e-08                 yes
                        option_file_name = Preset_Case:_831_NCP.opt  yes
                             output_file = ./tmp/Preset_Case:_831_NCP.output  yes
                      print_user_options = yes                   yes
        required_infeasibility_reduction = 1                      no
                                     tol = 1e-08                 yes
                   warm_start_bound_frac = 1e-20                 yes
                   warm_start_bound_push = 1e-20                 yes
                   warm_start_init_point = yes                   yes
              warm_start_mult_bound_push = 1e-20                 yes
                warm_start_mult_init_max = 1e+40                 yes
             warm_start_slack_bound_frac = 1e-20                 yes
             warm_start_slack_bound_push = 1e-20                 yes

******************************************************************************
This program contains Ipopt, a library for large-scale nonlinear optimization.
 Ipopt is released as open source code under the Eclipse Public License (EPL).
         For more information visit http://projects.coin-or.org/Ipopt
******************************************************************************

This is Ipopt version 3.12.10, running with linear solver ma97.

Number of nonzeros in equality constraint Jacobian...:   117167
Number of nonzeros in inequality constraint Jacobian.:      213
Number of nonzeros in Lagrangian Hessian.............:    47513

Total number of variables............................:    29977
                     variables with only lower bounds:    11312
                variables with lower and upper bounds:    15135
                     variables with only upper bounds:        0
Total number of equality constraints.................:    29864
Total number of inequality constraints...............:       25
        inequality constraints with only lower bounds:        4
   inequality constraints with lower and upper bounds:        0
        inequality constraints with only upper bounds:       21

iter    objective    inf_pr   inf_du lg(mu)  ||d||  lg(rg) alpha_du alpha_pr  ls
   0 -1.3806470e-01 4.73e-01 2.00e+00  -6.0 0.00e+00    -  0.00e+00 0.00e+00   0
In iteration 0, 9 Slacks too small, adjusting variable bounds
   1 -1.3806470e-01 4.73e-01 1.81e+02  -6.0 1.07e+10    -  1.80e-14 4.48e-19h  1
   2 -1.3806369e-01 4.73e-01 1.81e+02  -6.0 2.09e+02    -  1.59e-07 2.91e-05f  1
   3 -1.3806368e-01 4.73e-01 1.84e+02  -6.0 7.40e+01    -  1.35e-02 9.56e-07h  2
   4 -1.3796314e-01 4.72e-01 1.82e+02  -6.0 2.07e+02    -  7.27e-05 2.91e-03h  1
   5 -1.3775554e-01 4.67e-01 1.82e+02  -6.0 1.81e+02    -  1.46e-02 1.03e-02h  1
   6 -1.3708949e-01 4.51e-01 1.72e+02  -6.0 1.72e+02    -  1.09e-02 3.34e-02h  2
   7 -1.3626382e-01 4.32e-01 1.64e+02  -6.0 1.50e+02    -  3.70e-02 4.26e-02h  3
   8 -1.3508249e-01 4.09e-01 1.79e+02  -6.0 1.29e+02    -  1.21e-01 5.22e-02h  3
   9 -1.3417418e-01 3.90e-01 1.56e+02  -6.0 1.10e+02    -  1.50e-02 4.84e-02h  1
iter    objective    inf_pr   inf_du lg(mu)  ||d||  lg(rg) alpha_du alpha_pr  ls
  10 -1.3305672e-01 3.66e-01 1.81e+02  -6.0 9.64e+01    -  1.54e-01 6.06e-02h  2
  11 -1.3191809e-01 3.42e-01 1.52e+02  -6.0 8.31e+01    -  5.45e-03 6.64e-02h  1
  12 -1.3041983e-01 3.10e-01 4.45e+05  -6.0 8.68e+01    -  2.88e-01 9.34e-02h  2
  13 -1.2962451e-01 2.91e-01 4.79e+05  -6.0 7.92e+01    -  8.76e-02 5.91e-02h  3
  14 -1.2881848e-01 2.73e-01 1.03e+06  -6.0 7.66e+01    -  3.05e-01 6.50e-02h  3
  15 -1.2798374e-01 2.52e-01 1.34e+06  -6.0 7.33e+01    -  2.45e-01 7.67e-02h  3
  16 -1.2724946e-01 2.32e-01 1.81e+06  -6.0 6.93e+01    -  2.99e-01 7.81e-02h  3
  17 -1.2652240e-01 2.12e-01 1.87e+06  -6.0 6.08e+01    -  1.77e-01 8.77e-02h  3
  18 -1.2604676e-01 1.99e-01 1.84e+06  -6.0 1.06e+02    -  1.14e-01 5.90e-02h  3
  19 -1.2573735e-01 1.92e-01 1.75e+06  -6.0 1.49e+02    -  8.64e-02 3.47e-02h  3
iter    objective    inf_pr   inf_du lg(mu)  ||d||  lg(rg) alpha_du alpha_pr  ls
  20 -1.2543191e-01 1.85e-01 1.58e+06  -6.0 1.57e+02    -  1.04e-01 3.55e-02h  3
  21 -1.2526724e-01 1.81e-01 1.35e+06  -6.0 1.60e+02    -  1.01e-01 2.22e-02h  4
  22 -1.2432295e-01 1.20e+00 1.24e+06  -6.0 1.46e+02    -  1.25e-01 1.84e-01w  1
  23 -1.2410645e-01 1.18e+00 1.32e+06  -6.0 1.42e+02    -  2.08e-03 1.74e-02w  1
  24 -1.2410424e-01 1.18e+00 1.17e+06  -6.0 6.34e+01    -  6.68e-02 3.98e-03w  1
  25 -1.2514920e-01 1.77e-01 1.08e+06  -6.0 1.04e+02    -  1.25e-01 2.30e-02h  3
  26 -1.2513232e-01 1.77e-01 1.08e+06  -6.0 1.27e+02    -  2.89e-03 9.54e-03h  5
  27 -1.2507634e-01 1.73e-01 2.44e+04  -6.0 5.99e+01  -2.0 3.41e-03 1.60e-02h  1
  28 -1.2498322e-01 1.69e-01 3.65e+05  -6.0 5.60e+01  -2.5 1.06e-02 2.05e-02h  3
  29r-1.2498322e-01 1.69e-01 1.00e+03  -0.8 0.00e+00  -3.0 0.00e+00 4.62e-07R 10
iter    objective    inf_pr   inf_du lg(mu)  ||d||  lg(rg) alpha_du alpha_pr  ls
  30r-1.2477053e-01 1.68e-01 1.37e+03  -0.8 9.35e+03    -  1.13e-05 1.33e-05f  1
  31 -1.2475188e-01 1.67e-01 1.11e+07  -6.0 5.84e+01    -  1.16e-01 3.77e-03h  1
  32 -1.2435792e-01 2.14e-01 3.70e+08  -6.0 7.10e+01    -  3.77e-03 1.22e-01H  1
  33 -1.2435141e-01 2.13e-01 3.70e+08  -6.0 5.72e+01    -  1.30e-01 2.01e-03h  1
  34 -1.2426024e-01 2.07e-01 3.54e+08  -6.0 8.02e+01    -  1.56e-01 4.19e-02h  1
  35 -1.2362990e-01 1.87e-01 3.04e+08  -6.0 9.99e+01    -  1.22e-01 1.42e-01h  2
  36 -1.2249245e-01 1.95e-01 2.59e+08  -6.0 8.00e+01    -  1.14e-01 1.49e-01h  2
  37 -1.2139563e-01 2.05e-01 2.20e+08  -6.0 5.95e+01    -  1.36e-01 1.52e-01h  2
  38 -1.2122044e-01 2.02e-01 2.12e+08  -6.0 6.38e+01    -  1.57e-01 3.64e-02h  3
  39 -1.2110728e-01 1.97e-01 2.03e+08  -6.0 7.86e+01    -  1.82e-01 4.16e-02h  3
iter    objective    inf_pr   inf_du lg(mu)  ||d||  lg(rg) alpha_du alpha_pr  ls
  40 -1.2110036e-01 1.91e-01 1.97e+08  -6.0 9.58e+01    -  2.03e-01 3.02e-02h  4
  41 -1.2115325e-01 1.86e-01 1.92e+08  -6.0 1.14e+02    -  7.53e-02 2.27e-02h  5
  42 -1.2123676e-01 1.80e-01 1.87e+08  -6.0 1.19e+02    -  1.28e-01 2.57e-02h  5
  43 -1.2153604e-01 1.91e-01 1.77e+08  -6.0 1.31e+02    -  2.90e-02 5.37e-02h  4
  44 -1.2181006e-01 2.01e-01 1.69e+08  -6.0 1.29e+02    -  6.16e-02 4.70e-02h  4
  45 -1.2415319e-01 1.15e+00 1.10e+08  -6.0 1.29e+02    -  3.34e-01 3.47e-01w  1
  46 -1.2551429e-01 1.10e+00 1.04e+08  -6.0 1.54e+02    -  1.57e-01 5.64e-02w  1
  47 -1.3376120e-01 1.17e+00 7.20e+07  -6.0 1.47e+02    -  9.64e-02 3.08e-01w  1
  48 -1.2239584e-01 2.47e-01 1.54e+08  -6.0 1.52e+02    -  3.34e-01 8.68e-02h  2
  49 -1.2387030e-01 3.10e-01 1.39e+08  -6.0 1.53e+02    -  1.02e-01 9.89e-02h  3
iter    objective    inf_pr   inf_du lg(mu)  ||d||  lg(rg) alpha_du alpha_pr  ls
  50 -1.3033770e-01 1.30e+00 8.76e+07  -6.0 1.43e+02    -  2.82e-01 3.70e-01h  1
  51 -1.3340764e-01 1.21e+00 7.95e+07  -6.0 1.44e+02    -  8.68e-02 9.14e-02h  1
  52 -1.3435660e-01 1.26e+00 6.30e+07  -6.0 1.31e+02    -  1.01e-01 2.08e-01h  1
  53 -1.3436255e-01 1.23e+00 6.16e+07  -6.0 1.25e+02    -  4.25e-02 2.30e-02h  1
  54 -1.3429952e-01 9.03e-01 4.44e+07  -6.0 1.29e+02    -  1.58e-01 2.79e-01h  1
  55 -1.3392364e-01 6.61e-01 3.22e+07  -6.0 1.19e+02    -  3.08e-01 2.75e-01h  1
  56r-1.3392364e-01 6.61e-01 1.00e+03  -0.5 0.00e+00    -  0.00e+00 1.68e-07R  2
  57r-1.3341570e-01 6.55e-01 1.00e+03  -0.5 5.52e+03    -  8.06e-06 8.94e-06f  1
  58 -1.3334706e-01 5.11e-01 3.94e+02  -6.0 8.73e+01    -  4.55e-01 2.31e-01h  1
  59 -1.3376765e-01 2.72e-01 1.14e+03  -6.0 8.60e+01    -  2.32e-01 5.04e-01h  1
iter    objective    inf_pr   inf_du lg(mu)  ||d||  lg(rg) alpha_du alpha_pr  ls
  60 -1.3300467e-01 2.77e-01 2.36e+01  -6.0 8.00e+01    -  6.96e-01 1.00e+00h  1
  61 -1.3576854e-01 8.16e-02 5.22e+01  -6.0 1.95e+01    -  9.27e-01 1.00e+00h  1
  62 -1.3942922e-01 1.74e-01 4.59e+01  -6.0 1.83e+02    -  8.39e-02 1.23e-01h  1
  63 -1.4762594e-01 6.35e-01 3.39e+01  -6.0 1.91e+02    -  3.58e-01 2.66e-01h  1
  64 -1.4910576e-01 6.21e-01 3.25e+01  -6.0 2.76e+02    -  1.73e-01 4.33e-02h  1
  65 -1.5466462e-01 6.63e-01 2.74e+01  -6.0 3.16e+02    -  1.19e-01 1.57e-01h  1
  66 -1.6293026e-01 1.11e+00 4.54e+01  -6.0 3.24e+02    -  3.99e-01 2.67e-01h  1
  67 -1.6468828e-01 1.07e+00 4.81e+01  -6.0 4.33e+02    -  2.73e-01 6.95e-02h  1
  68 -1.7069206e-01 2.31e+00 7.77e+01  -6.0 1.00e+03    -  3.25e-01 2.20e-01h  1
  69 -1.7065559e-01 2.13e+00 7.29e+01  -6.0 1.67e+00  -3.4 5.33e-02 7.63e-02h  1
iter    objective    inf_pr   inf_du lg(mu)  ||d||  lg(rg) alpha_du alpha_pr  ls
  70 -1.7048096e-01 1.40e+00 5.38e+01  -6.0 1.75e+00  -3.9 2.16e-01 3.43e-01h  1
  71 -1.7027689e-01 5.86e-01 1.17e+01  -6.0 1.48e+00  -4.4 9.43e-01 5.81e-01h  1
  72 -1.7036175e-01 2.78e-01 6.12e+00  -6.0 3.19e+00  -4.9 1.00e+00 5.25e-01h  1
  73 -1.7056354e-01 2.08e-01 5.22e+00  -6.0 8.78e+00  -5.3 1.00e+00 2.50e-01h  1
  74 -1.7260584e-01 2.65e-01 6.09e+00  -6.0 2.54e+01  -5.8 1.00e+00 1.00e+00h  1
  75 -1.7673317e-01 2.25e+00 1.98e+01  -6.0 6.23e+01  -6.3 3.68e-01 8.76e-01h  1
  76 -1.7846683e-01 2.82e+00 2.18e+01  -6.0 1.16e+02  -6.8 1.87e-02 2.28e-01h  1
  77 -1.8213109e-01 1.23e+01 5.26e+01  -6.0 1.47e+02  -7.2 5.05e-01 6.44e-01f  1
  78 -1.8210787e-01 1.18e+01 5.50e+01  -6.0 9.12e+00  -3.2 4.43e-01 3.81e-02h  1
  79 -1.8210221e-01 1.17e+01 5.44e+01  -6.0 1.28e+01  -3.7 8.26e-03 1.16e-02h  1
iter    objective    inf_pr   inf_du lg(mu)  ||d||  lg(rg) alpha_du alpha_pr  ls
  80 -1.8208076e-01 1.14e+01 5.33e+01  -6.0 1.45e+01  -4.2 4.35e-02 2.18e-02h  1
  81 -1.8199696e-01 9.35e+00 1.39e+02  -6.0 1.05e+01  -3.7 1.94e-03 1.82e-01h  1
  82 -1.8197919e-01 9.23e+00 1.45e+02  -6.0 7.82e+01  -3.3 6.41e-03 1.25e-02h  1
  83 -1.8195637e-01 9.01e+00 1.40e+02  -6.0 1.63e+01  -2.9 3.68e-02 2.47e-02h  1
  84 -1.8192564e-01 8.38e+00 1.30e+02  -6.0 7.03e+00  -2.5 1.40e-01 7.00e-02h  1
  85 -1.8192561e-01 8.38e+00 1.30e+02  -6.0 2.78e+01  -2.9 5.39e-03 3.13e-05h  1
  86 -1.8189397e-01 7.74e+00 1.20e+02  -6.0 8.14e+00  -2.5 2.29e-02 7.52e-02h  1
  87 -1.8189376e-01 7.74e+00 1.20e+02  -6.0 2.97e+01  -3.0 2.22e-04 2.77e-04h  1
  88 -1.8189316e-01 7.74e+00 1.20e+02  -6.0 4.48e+00  -2.6 6.25e-02 9.84e-04f  1
  89 -1.8175139e-01 7.22e+00 2.25e+02  -6.0 3.16e+01  -3.0 1.32e-02 6.63e-02h  1
iter    objective    inf_pr   inf_du lg(mu)  ||d||  lg(rg) alpha_du alpha_pr  ls
  90 -1.8175489e-01 6.13e+00 2.24e+02  -6.0 6.02e+00  -2.6 2.85e-01 1.51e-01h  1
  91 -1.8174994e-01 3.78e+00 1.98e+02  -6.0 6.91e+00  -3.1 2.07e-01 3.84e-01h  1
  92 -1.8166030e-01 2.62e+00 1.37e+02  -6.0 4.29e+00  -3.6 1.00e+00 3.05e-01h  1
  93 -1.8164814e-01 1.88e+00 9.71e+01  -6.0 1.93e+01  -4.0 2.57e-02 2.86e-01h  1
  94 -1.8164773e-01 1.80e+00 9.27e+01  -6.0 1.94e+00  -3.6 3.59e-01 4.47e-02h  1
  95 -1.8157686e-01 1.64e+00 8.56e+01  -6.0 2.18e+01  -4.1 7.10e-02 7.30e-02h  1
  96 -1.8143908e-01 5.71e-02 7.26e+01  -6.0 1.67e+00  -3.7 7.26e-01 1.00e+00h  1
  97 -1.8143784e-01 4.07e-02 5.19e+01  -6.0 6.32e-02  -2.3 1.00e+00 2.86e-01h  1
  98 -1.8144546e-01 1.70e-05 1.93e+00  -6.0 2.55e-02  -2.8 1.00e+00 1.00e+00f  1
  99 -1.8147340e-01 2.45e-04 1.01e-01  -6.0 7.17e-02  -3.3 1.00e+00 1.00e+00h  1
iter    objective    inf_pr   inf_du lg(mu)  ||d||  lg(rg) alpha_du alpha_pr  ls
 100 -1.8153166e-01 5.29e-04 2.40e-01  -6.0 2.24e-01  -3.8 1.00e+00 6.95e-01h  1
 101 -1.8156132e-01 4.28e-04 1.13e+00  -6.0 4.32e-01  -4.2 1.00e+00 1.89e-01f  1
 102 -1.8162821e-01 3.63e-03 1.15e+00  -6.0 1.17e+00  -4.7 1.00e+00 5.37e-01f  1
 103 -1.8193567e-01 1.10e-01 1.67e+00  -6.0 3.57e+00  -5.2 1.00e+00 1.00e+00f  1
 104 -1.8196544e-01 1.05e-01 7.62e+00  -6.0 1.17e+01  -5.7 1.00e+00 4.65e-02h  1
 105 -1.8323788e-01 5.73e-01 1.02e+01  -6.0 3.33e+01  -6.2 1.00e+00 7.99e-01f  1
 106 -1.8409335e-01 1.41e+00 9.00e+00  -6.0 3.07e+01  -6.6 1.00e+00 1.00e+00h  1
 107 -1.8529882e-01 1.01e+00 1.44e+01  -6.0 7.31e+01  -7.1 1.00e+00 4.51e-01h  1
 108 -1.8701030e-01 7.01e-01 4.01e+01  -6.0 1.83e+02  -7.6 1.00e+00 3.07e-01h  1
 109 -1.9165738e-01 1.84e+00 1.39e+02  -6.0 4.97e+02  -8.1 4.30e-01 3.74e-01h  1
iter    objective    inf_pr   inf_du lg(mu)  ||d||  lg(rg) alpha_du alpha_pr  ls
 110 -1.9432069e-01 7.70e-01 2.20e+02  -6.0 1.97e+02  -7.6 2.55e-04 6.01e-01h  1
 111 -1.9432139e-01 7.68e-01 2.19e+02  -6.0 2.03e+00   0.2 1.60e-02 3.45e-03h  1
 112 -1.9432102e-01 7.59e-01 2.17e+02  -6.0 3.36e+00   0.6 2.49e-04 1.16e-02h  1
 113 -1.9432109e-01 7.51e-01 2.15e+02  -6.0 4.11e+00   1.1 2.91e-03 9.68e-03h  1
 114 -1.9432113e-01 7.50e-01 2.15e+02  -6.0 4.64e+00   0.6 1.72e-04 1.63e-03h  1
 115 -1.9432103e-01 7.50e-01 2.14e+02  -6.0 4.65e+00   0.1 1.80e-02 6.60e-04h  1
 116 -1.9431899e-01 7.42e-01 2.12e+02  -6.0 4.73e+00  -0.4 1.77e-03 1.08e-02h  1
 117 -1.9431679e-01 7.39e-01 2.10e+02  -6.0 4.26e+00  -0.9 4.32e-02 3.68e-03h  1
 118 -1.9428439e-01 7.08e-01 2.02e+02  -6.0 4.49e+00  -1.3 7.50e-03 4.23e-02h  1
 119 -1.9350202e-01 1.57e-01 3.66e+03  -6.0 4.43e+00  -1.8 4.33e-02 1.00e+00h  1
iter    objective    inf_pr   inf_du lg(mu)  ||d||  lg(rg) alpha_du alpha_pr  ls
 120 -1.9359422e-01 6.02e-03 5.16e+02  -6.0 5.58e-01  -2.3 8.07e-01 1.00e+00h  1
 121 -1.9362034e-01 3.97e-03 3.40e+02  -6.0 7.65e-02  -2.8 9.81e-01 3.41e-01h  1
 122 -1.9362345e-01 3.95e-03 3.39e+02  -6.0 3.53e+00  -3.2 6.21e-01 4.73e-03f  1
 123 -1.9378935e-01 2.24e-03 1.92e+02  -6.0 5.27e-01  -3.7 7.90e-01 4.32e-01f  1
 124 -1.9395845e-01 1.59e-03 1.37e+02  -6.0 1.26e+00  -4.2 6.24e-01 2.87e-01f  1
 125 -1.9405926e-01 1.45e-03 1.24e+02  -6.0 3.66e+00  -4.7 1.00e+00 9.61e-02f  1
 126 -1.9410638e-01 2.26e-03 3.13e+01  -6.0 3.26e-01  -4.2 1.00e+00 7.48e-01f  1
 127 -1.9413910e-01 2.65e-03 2.34e+01  -6.0 7.26e-01  -4.7 1.00e+00 2.53e-01f  1
 128 -1.9418394e-01 1.60e-03 1.37e+01  -6.0 1.65e+00  -5.2 1.00e+00 4.13e-01f  1
 129 -1.9427700e-01 2.37e-02 6.08e+00  -6.0 2.03e+00  -5.7 1.00e+00 1.00e+00f  1
iter    objective    inf_pr   inf_du lg(mu)  ||d||  lg(rg) alpha_du alpha_pr  ls
 130 -1.9444807e-01 4.85e-02 1.97e+00  -6.0 6.16e+00  -6.2 1.00e+00 1.00e+00h  1
 131 -1.9488637e-01 2.52e-02 3.46e+00  -6.0 1.85e+01  -6.6 1.00e+00 1.00e+00h  1
 132 -1.9611759e-01 4.89e-02 9.73e+00  -6.0 5.47e+01  -7.1 1.00e+00 1.00e+00h  1
 133 -1.9933909e-01 3.95e-01 2.90e+01  -6.0 1.55e+02  -7.6 1.00e+00 1.00e+00h  1
 134 -2.0401220e-01 1.11e+00 1.63e+01  -6.0 3.78e+02  -8.1 8.29e-01 6.43e-01h  1
 135 -2.0613839e-01 4.78e-01 5.72e+00  -6.0 1.37e+02  -7.6 1.00e+00 1.00e+00h  1
 136 -2.0830599e-01 7.39e-01 7.57e+00  -6.0 3.24e+02  -8.1 5.58e-01 3.94e-01h  1
 137 -2.0990849e-01 5.94e-01 2.40e+00  -6.0 1.28e+02  -7.7 1.00e+00 1.00e+00h  1
 138 -2.1464740e-01 2.85e+00 2.99e+01  -6.0 3.77e+02  -8.2 6.37e-01 1.00e+00h  1
 139 -2.1538016e-01 2.35e+00 2.18e+01  -6.0 2.09e+02  -7.7 3.84e-01 3.66e-01h  1
iter    objective    inf_pr   inf_du lg(mu)  ||d||  lg(rg) alpha_du alpha_pr  ls
 140 -2.1918761e-01 3.59e+01 2.26e+02  -6.0 9.98e+02  -8.2 3.47e-01 5.76e-01h  1
 141 -2.2039834e-01 4.79e+01 2.66e+02  -6.0 5.35e+02  -7.8 7.78e-02 2.29e-01h  1
 142 -2.2296001e-01 2.12e+01 1.03e+02  -6.0 4.68e+02  -8.3 1.64e-01 5.50e-01h  1
 143 -2.2387285e-01 2.33e+01 1.37e+02  -6.0 1.20e+03  -8.7 3.54e-01 7.32e-02h  1
 144 -2.2685671e-01 2.64e+01 1.20e+02  -6.0 4.41e+03  -9.2 2.16e-02 1.17e-01h  1
 145 -2.2747337e-01 2.48e+01 1.05e+02  -6.0 9.37e+02  -8.8 6.68e-03 6.36e-02h  1
 146 -2.2826745e-01 2.34e+01 9.68e+01  -6.0 3.60e+03  -9.3 9.10e-04 4.22e-02f  1
 147 -2.2919133e-01 2.16e+01 1.05e+02  -6.0 1.16e+03  -8.8 1.75e-01 9.58e-02h  1
 148 -2.3120618e-01 1.96e+01 9.57e+01  -6.0 9.50e+03  -9.3 9.67e-02 8.77e-02h  1
 149 -2.3185529e-01 1.81e+01 1.89e+02  -6.0 1.65e+03  -8.9 3.15e-01 7.92e-02h  1
iter    objective    inf_pr   inf_du lg(mu)  ||d||  lg(rg) alpha_du alpha_pr  ls
 150 -2.3472072e-01 7.49e+00 1.50e+02  -6.0 4.81e+02  -8.5 1.00e+00 6.32e-01h  1
 151 -2.3774977e-01 1.04e+01 4.95e+02  -6.0 1.38e+03  -8.9 7.73e-01 4.02e-01h  1
 152 -2.3995078e-01 1.52e+01 1.07e+03  -6.0 3.02e+03  -9.4 6.59e-01 2.01e-01h  1
 153 -2.4155065e-01 9.24e+00 1.60e+03  -6.0 8.84e+02  -9.0 9.92e-03 4.72e-01h  1
 154 -2.4160642e-01 9.06e+00 1.57e+03  -6.0 1.90e+03  -9.5 4.46e-02 1.99e-02h  1
 155 -2.4185497e-01 8.22e+00 3.08e+03  -6.0 1.24e+03 -10.0 7.11e-01 9.30e-02h  1
 156 -2.4215952e-01 7.31e+00 2.88e+03  -6.0 2.24e+03 -10.4 1.58e-01 1.11e-01h  1
 157 -2.4262552e-01 5.54e+00 2.32e+03  -6.0 1.79e+03 -10.0 2.88e-01 2.47e-01h  1
 158 -2.4322561e-01 4.06e+00 3.48e+03  -6.0 2.80e+02  -8.7 2.36e-01 1.00e+00h  1
 159 -2.4438438e-01 3.68e+00 2.17e+04  -6.0 4.88e+02  -9.2 1.47e-01 8.85e-01h  1
iter    objective    inf_pr   inf_du lg(mu)  ||d||  lg(rg) alpha_du alpha_pr  ls
 160 -2.4509841e-01 4.94e+00 2.92e+06  -6.0 1.22e+03  -9.6 2.30e-03 5.27e-01h  1
 161 -2.4635123e-01 1.30e+01 5.44e+05  -6.0 9.66e+02  -9.2 1.70e-01 8.13e-01h  1
 162 -2.4664336e-01 1.32e+01 5.32e+05  -6.0 6.41e+03  -9.7 3.11e-02 2.24e-02h  1
 163 -2.4704322e-01 5.59e+00 9.22e+04  -6.0 8.16e+02  -9.3 5.02e-01 8.26e-01f  1
 164 -2.4758279e-01 4.13e+00 4.78e+04  -6.0 4.97e+02  -8.8 1.00e+00 4.81e-01h  1
 165 -2.4940386e-01 1.59e+01 2.97e+04  -6.0 2.10e+03  -9.3 3.97e-01 3.77e-01h  1
 166 -2.5087045e-01 1.26e+01 1.42e+04  -6.0 8.92e+02  -9.8 2.98e-02 5.14e-01h  1
 167 -2.5224066e-01 2.06e+01 1.01e+04  -6.0 2.48e+03  -9.4 2.35e-02 2.87e-01h  1
 168 -2.5216912e-01 1.93e+01 9.42e+03  -6.0 1.22e+03  -9.8 8.75e-02 7.18e-02h  1
 169 -2.5220010e-01 1.75e+01 8.54e+03  -6.0 4.72e+03 -10.3 5.93e-02 9.31e-02h  1
iter    objective    inf_pr   inf_du lg(mu)  ||d||  lg(rg) alpha_du alpha_pr  ls
 170 -2.5241923e-01 1.68e+01 8.13e+03  -6.0 1.79e+03  -9.9 6.23e-02 4.77e-02h  1
 171 -2.5256769e-01 1.58e+01 7.65e+03  -6.0 2.01e+04 -10.4 4.36e-02 5.99e-02h  1
 172 -2.5268912e-01 1.19e+01 5.75e+03  -6.0 3.38e+03 -10.8 2.66e-01 2.49e-01h  1
 173 -2.5284656e-01 2.24e+00 3.11e+02  -6.0 5.44e+02  -9.5 1.39e-02 9.44e-01h  1
 174 -2.5282183e-01 2.31e+00 2.98e+02  -6.0 2.30e+03 -10.0 1.04e-03 4.22e-02h  3
 175 -2.5285805e-01 2.30e+00 5.87e+02  -6.0 1.32e+03  -9.6 8.97e-01 7.56e-02h  1
 176 -2.5313435e-01 6.47e+00 5.83e+03  -6.0 6.85e+02 -10.0 2.69e-02 8.73e-01h  1
 177 -2.5322586e-01 3.25e+00 2.77e+03  -6.0 2.29e+02  -8.7 2.25e-02 5.29e-01h  1
 178 -2.5322715e-01 3.25e+00 2.77e+03  -6.0 2.13e+05  -9.2 2.57e-08 2.07e-05h  1
 179 -2.5322751e-01 3.25e+00 2.77e+03  -6.0 3.36e+03  -4.2 1.04e-03 3.11e-05h  1
iter    objective    inf_pr   inf_du lg(mu)  ||d||  lg(rg) alpha_du alpha_pr  ls
 180 -2.5322329e-01 3.23e+00 2.75e+03  -6.0 3.64e+01  -4.7 2.31e-04 5.95e-03f  1
 181 -2.5322482e-01 3.06e+00 2.60e+03  -6.0 2.07e+00  -3.4 9.53e-03 5.06e-02f  1
 182 -2.5322921e-01 2.99e+00 2.66e+03  -6.0 1.91e+00  -3.9 6.01e-01 2.38e-02f  1
 183 -2.5320220e-01 1.40e+00 1.23e+03  -6.0 1.25e+00  -4.3 1.86e-01 5.31e-01h  1
 184 -2.5320430e-01 1.00e+00 8.82e+02  -6.0 3.77e+00  -4.8 3.23e-01 2.85e-01h  1
 185 -2.5323278e-01 6.12e-01 5.32e+02  -6.0 3.02e+00  -5.3 3.43e-02 3.90e-01h  1
 186 -2.5327409e-01 9.65e-02 8.28e+01  -6.0 1.31e+00  -4.9 7.81e-01 8.42e-01h  1
 187 -2.5328313e-01 6.59e-02 5.66e+01  -6.0 1.48e+00  -5.4 3.29e-01 3.17e-01f  1
 188 -2.5326258e-01 1.21e-02 1.01e+01  -6.0 1.52e+00  -5.8 3.51e-01 8.16e-01h  1
 189 -2.5326142e-01 5.13e-03 4.02e+00  -6.0 1.22e+00  -6.3 6.10e-01 5.77e-01f  1
iter    objective    inf_pr   inf_du lg(mu)  ||d||  lg(rg) alpha_du alpha_pr  ls
 190 -2.5320589e-01 1.05e-01 6.12e+00  -6.0 6.12e+00  -6.8 4.18e-01 1.00e+00f  1
 191 -2.5313219e-01 9.14e-01 1.73e+01  -6.0 6.00e+01  -7.3 2.97e-01 5.78e-01h  1
 192 -2.5316531e-01 2.99e-01 5.25e+00  -6.0 2.49e+01  -7.7 1.00e+00 7.35e-01h  1
 193 -2.5319011e-01 4.18e+00 1.56e+01  -6.0 4.37e+02  -8.2 4.41e-02 1.15e-01h  1
 194 -2.5349277e-01 3.41e+01 2.32e+01  -6.0 2.77e+02  -8.7 1.41e-01 2.41e-01h  1
 195 -2.5363157e-01 2.05e+01 1.35e+01  -6.0 4.55e+02  -9.2 4.71e-01 5.44e-01h  1
 196 -2.5388645e-01 1.78e+01 1.24e+01  -6.0 7.36e+02  -9.6 6.16e-01 2.98e-01h  1
 197 -2.5417182e-01 9.44e+00 1.50e+01  -6.0 1.19e+03 -10.1 1.00e+00 4.71e-01h  1
 198 -2.5445440e-01 6.85e+00 1.29e+01  -6.0 3.00e+03 -10.6 4.21e-01 3.27e-01h  1
 199 -2.5478232e-01 8.60e+00 1.07e+02  -6.0 8.38e+03 -11.1 6.76e-01 2.75e-01h  1
iter    objective    inf_pr   inf_du lg(mu)  ||d||  lg(rg) alpha_du alpha_pr  ls
 200 -2.5503380e-01 9.01e+00 7.04e+02  -6.0 2.89e+03 -10.7 2.57e-01 4.51e-01h  1
 201 -2.5508896e-01 7.98e+00 2.77e+02  -6.0 3.54e+03 -10.2 1.68e-01 1.17e-01h  1
 202 -2.5523038e-01 6.46e+00 6.65e+03  -6.0 2.07e+03 -10.7 5.28e-02 2.97e-01h  1
 203 -2.5533828e-01 3.95e+00 4.01e+03  -6.0 4.20e+02  -9.4 7.89e-01 3.88e-01h  1
 204 -2.5539063e-01 3.34e+00 3.31e+03  -6.0 6.91e+02  -9.9 4.83e-01 1.58e-01h  1
 205 -2.5562646e-01 2.17e+00 9.92e+02  -6.0 3.99e+02  -9.4 2.12e-01 8.53e-01h  1
 206 -2.5580430e-01 2.65e+00 1.86e+03  -6.0 5.88e+02  -9.9 8.52e-02 5.29e-01h  1
 207 -2.5591451e-01 1.76e+00 2.08e+03  -6.0 1.31e+02  -8.6 1.38e-01 3.43e-01h  1
 208 -2.5596163e-01 1.42e+00 7.08e+02  -6.0 2.00e+02  -9.1 1.35e-02 2.13e-01h  1
 209 -2.5598044e-01 1.41e+00 6.86e+02  -6.0 1.63e+03  -9.5 2.76e-03 2.75e-02h  1
iter    objective    inf_pr   inf_du lg(mu)  ||d||  lg(rg) alpha_du alpha_pr  ls
 210 -2.5598037e-01 1.41e+00 6.86e+02  -6.0 6.13e+04 -10.0 3.13e-07 1.40e-05f  2
 211 -2.5603836e-01 9.11e-01 9.26e+03  -6.0 5.77e+01  -6.9 7.76e-02 3.55e-01h  1
 212 -2.5605715e-01 1.66e+00 7.56e+03  -6.0 1.16e+02  -7.3 6.50e-02 1.77e-01h  1
 213 -2.5625363e-01 2.96e+01 3.68e+02  -6.0 3.04e+01  -7.8 2.45e-01 1.00e+00h  1
 214 -2.5628080e-01 2.48e+01 9.28e+01  -6.0 2.35e+01  -8.3 7.79e-01 2.26e-01h  1
 215 -2.5632467e-01 2.33e+01 1.88e+01  -6.0 6.92e+01  -8.8 1.00e+00 7.85e-01h  1
 216 -2.5630137e-01 4.41e+00 2.74e+00  -6.0 1.93e+02  -9.3 1.00e+00 1.00e+00h  1
 217 -2.5640727e-01 3.71e+00 2.17e+00  -6.0 5.56e+02  -9.7 1.00e+00 9.83e-01h  1
 218 -2.5642976e-01 1.71e-01 2.67e-02  -6.0 2.04e+02  -9.3 1.00e+00 1.00e+00h  1
 219 -2.5647964e-01 8.28e-01 2.18e+00  -6.0 5.61e+02  -9.8 1.00e+00 6.64e-01h  1
iter    objective    inf_pr   inf_du lg(mu)  ||d||  lg(rg) alpha_du alpha_pr  ls
 220 -2.5664054e-01 2.20e+00 1.62e+00  -6.0 1.41e+03 -10.3 1.00e+00 9.91e-01h  1
 221 -2.5668000e-01 1.12e+00 2.49e+00  -6.0 5.11e+02  -9.8 5.56e-01 1.00e+00h  1
 222 -2.5677582e-01 2.24e+00 1.55e+00  -6.0 1.28e+03 -10.3 9.45e-01 8.32e-01h  1
 223 -2.5680683e-01 3.41e+01 2.57e+01  -6.0 2.28e+04    -  1.24e-01 7.10e-02h  1
 224 -2.5686706e-01 2.98e+01 4.01e+01  -6.0 7.17e+03    -  1.28e-01 1.51e-01h  1
 225 -2.5696521e-01 1.99e+01 8.41e+01  -6.0 5.22e+03    -  2.39e-01 3.37e-01h  1
 226 -2.5704695e-01 6.93e+00 5.15e+01  -6.0 1.95e+03    -  9.94e-01 6.61e-01h  1
 227 -2.5726051e-01 8.06e+00 7.36e+00  -6.0 7.71e+02    -  1.00e+00 1.00e+00h  1
 228 -2.5729436e-01 6.99e+00 7.56e+00  -6.0 4.45e+02    -  1.00e+00 1.40e-01h  1
 229 -2.5729280e-01 6.22e+00 6.75e+00  -6.0 1.03e+03    -  1.75e-01 1.09e-01h  1
iter    objective    inf_pr   inf_du lg(mu)  ||d||  lg(rg) alpha_du alpha_pr  ls
 230 -2.5736877e-01 6.00e-01 1.30e+00  -6.0 4.01e+02    -  1.00e+00 1.00e+00f  1
 231 -2.5733311e-01 4.17e-02 9.02e-02  -6.0 6.89e+01    -  1.00e+00 1.00e+00h  1
 232 -2.5731829e-01 1.11e-02 1.99e-02  -6.0 2.33e+01    -  1.00e+00 1.00e+00h  1
 233 -2.5731642e-01 5.15e-04 5.47e-04  -6.0 4.93e+00    -  1.00e+00 1.00e+00h  1
 234 -2.5731634e-01 8.58e-07 9.86e-07  -6.0 2.18e-01    -  1.00e+00 1.00e+00h  1
 235 -2.5774177e-01 1.01e+00 2.03e+01  -7.5 1.63e+03    -  1.63e-01 2.20e-01h  1
 236 -2.5803536e-01 1.85e+00 4.45e+01  -7.5 1.79e+03    -  5.45e-01 3.20e-01h  1
 237 -2.5813626e-01 1.78e+00 7.99e+01  -7.5 1.55e+03    -  4.99e-01 1.58e-01h  1
 238 -2.5837762e-01 3.16e+00 1.98e+01  -7.5 7.84e+02 -10.8 1.88e-01 4.97e-01h  1
 239 -2.5855642e-01 2.31e+00 5.49e+00  -7.5 1.20e+03    -  6.08e-01 6.70e-01h  1
iter    objective    inf_pr   inf_du lg(mu)  ||d||  lg(rg) alpha_du alpha_pr  ls
 240 -2.5858577e-01 1.03e+00 1.39e+01  -7.5 4.05e+02 -11.3 1.00e+00 6.40e-01h  1
 241 -2.5861846e-01 3.95e-01 3.14e-01  -7.5 4.08e+02    -  7.81e-01 1.00e+00h  1
 242 -2.5863680e-01 1.25e+00 4.45e-01  -7.5 3.60e+02 -11.7 3.58e-01 7.02e-01h  1
 243 -2.5864010e-01 1.71e+00 8.22e-01  -7.5 1.13e+03 -12.2 3.53e-02 1.73e-01h  1
 244 -2.5865559e-01 1.04e+02 2.30e+00  -7.5 4.63e+03 -12.7 3.69e-02 6.49e-01f  1
 245 -2.5865551e-01 1.23e+02 6.68e+00  -7.5 5.24e+03    -  8.79e-03 4.26e-01h  1
 246 -2.5866033e-01 7.15e+01 9.52e+00  -7.5 8.60e+02    -  4.75e-02 4.26e-01h  1
 247 -2.5866110e-01 6.27e+01 9.56e+00  -7.5 4.83e+02    -  5.47e-01 1.24e-01h  1
 248 -2.5866112e-01 6.16e+01 9.51e+00  -7.5 8.89e+03    -  1.48e-02 7.49e-03H  1
 249 -2.5866375e-01 4.93e+01 2.48e+00  -7.5 1.99e+03    -  1.04e-01 1.00e+00f  1
iter    objective    inf_pr   inf_du lg(mu)  ||d||  lg(rg) alpha_du alpha_pr  ls
 250 -2.5866319e-01 5.42e-01 8.53e-01  -7.5 2.56e+02    -  1.38e-01 1.00e+00h  1
 251 -2.5866338e-01 6.44e+00 3.03e-01  -7.5 6.81e+03 -12.3 2.99e-01 1.01e-01h  3
 252 -2.5866334e-01 4.07e+00 1.05e-02  -7.5 5.57e+02 -11.8 1.00e+00 1.00e+00h  1
 253 -2.5866549e-01 3.46e+01 1.60e+00  -7.5 2.41e+03 -12.3 3.13e-01 1.00e+00H  1
 254 -2.5866614e-01 3.92e+00 1.06e+00  -7.5 4.37e+02 -11.0 4.10e-01 1.00e+00h  1
 255 -2.5866621e-01 4.49e-02 2.09e-03  -7.5 5.16e+01 -10.6 1.00e+00 1.00e+00h  1
 256 -2.5866740e-01 1.72e+01 3.35e-01  -7.5 1.08e+03    -  4.48e-01 1.00e+00h  1
 257 -2.5867074e-01 1.81e+01 3.52e+00  -7.5 2.44e+03    -  2.76e-01 1.00e+00H  1
 258 -2.5866997e-01 8.28e+00 3.11e-01  -7.5 6.99e+02    -  1.00e+00 1.00e+00h  1
 259 -2.5866944e-01 2.59e+00 8.15e-03  -7.5 3.96e+02    -  1.00e+00 1.00e+00h  1
iter    objective    inf_pr   inf_du lg(mu)  ||d||  lg(rg) alpha_du alpha_pr  ls
 260 -2.5866940e-01 1.78e-02 1.59e-04  -7.5 3.50e+01    -  1.00e+00 1.00e+00h  1
 261 -2.5866940e-01 1.12e-04 4.34e-07  -7.5 2.56e+00    -  1.00e+00 1.00e+00h  1
 262 -2.5866940e-01 3.05e-10 5.23e-13  -7.5 8.64e-04    -  1.00e+00 1.00e+00h  1
 263 -2.5867095e-01 2.25e+00 4.20e+00  -9.0 2.00e+03    -  4.65e-01 1.83e-01h  1
 264 -2.5867420e-01 5.65e+01 6.94e-01  -9.0 3.36e+03    -  3.82e-01 5.38e-01h  1
 265 -2.5867539e-01 3.89e+01 2.46e+01  -9.0 1.50e+03    -  3.93e-03 7.01e-01h  1
 266 -2.5867646e-01 2.20e+01 4.19e+00  -9.0 1.03e+03    -  1.19e-01 9.40e-01h  1
 267 -2.5867776e-01 3.48e+01 2.28e+00  -9.0 1.27e+03    -  4.67e-01 1.00e+00h  1
 268 -2.5867804e-01 4.42e-01 3.48e-01  -9.0 1.05e+02 -11.0 8.47e-01 1.00e+00h  1
 269 -2.5867847e-01 2.62e+00 1.59e-03  -9.0 3.39e+02 -11.5 1.00e+00 1.00e+00h  1
iter    objective    inf_pr   inf_du lg(mu)  ||d||  lg(rg) alpha_du alpha_pr  ls
 270 -2.5867913e-01 8.54e+00 2.03e-02  -9.0 1.70e+03 -12.0 9.03e-01 3.17e-01h  1
 271 -2.5867914e-01 6.30e-01 2.06e-02  -9.0 4.73e+02 -12.5 1.51e-01 1.00e+00H  1
 272 -2.5867940e-01 1.13e+00 1.93e-02  -9.0 2.33e+03 -13.0 2.21e-01 1.19e-01h  1
 273 -2.5867962e-01 9.42e+00 1.64e-02  -9.0 8.92e+02 -12.5 9.24e-02 1.00e+00h  1
 274 -2.5868026e-01 6.29e+01 4.30e-02  -9.0 2.94e+03 -13.0 4.49e-02 7.59e-01h  1
 275 -2.5868169e-01 8.05e+01 5.59e-02  -9.0 2.53e+03 -12.6 4.62e-01 9.30e-01h  1
 276 -2.5868170e-01 7.99e+01 7.54e+00  -9.0 4.72e+03 -13.1 4.63e-01 7.42e-03h  1
 277 -2.5868234e-01 1.26e+01 5.69e+02  -9.0 9.94e+02 -12.6 6.88e-03 1.00e+00h  1
 278 -2.5868321e-01 8.61e+01 4.07e+02  -9.0 8.60e+03 -13.1 4.30e-01 2.84e-01h  1
 279 -2.5868322e-01 8.61e+01 4.06e+02  -9.0 9.01e+04 -13.6 2.44e-02 7.39e-04h  6
iter    objective    inf_pr   inf_du lg(mu)  ||d||  lg(rg) alpha_du alpha_pr  ls
 280 -2.5868437e-01 7.98e+01 1.78e+02  -9.0 4.08e+03 -13.2 1.93e-01 5.64e-01h  1
 281 -2.5868465e-01 5.96e+01 1.33e+02  -9.0 2.13e+03    -  2.48e-02 2.53e-01h  1
 282 -2.5868466e-01 5.95e+01 1.33e+02  -9.0 2.79e+04 -12.7 2.81e-03 1.31e-03h  5
 283 -2.5868576e-01 6.13e+01 1.66e+01  -9.0 1.96e+03 -11.4 5.25e-03 1.00e+00h  1
 284 -2.5868683e-01 6.97e+01 5.92e+00  -9.0 3.39e+03    -  2.96e-01 6.42e-01h  1
 285 -2.5868815e-01 2.58e+01 5.26e+00  -9.0 1.19e+03 -11.9 1.13e-03 1.00e+00h  1
 286 -2.5868991e-01 5.62e+01 4.68e+00  -9.0 1.64e+04    -  4.01e-02 1.10e-01h  1
 287 -2.5869146e-01 5.63e+01 4.08e+00  -9.0 1.18e+04    -  1.34e-03 1.28e-01h  1
 288 -2.5869377e-01 5.39e+01 4.39e+00  -9.0 1.74e+03    -  2.35e-01 1.00e+00h  1
 289 -2.5869470e-01 1.93e+01 1.94e+02  -9.0 9.72e+02 -11.5 1.28e-02 1.00e+00h  1
iter    objective    inf_pr   inf_du lg(mu)  ||d||  lg(rg) alpha_du alpha_pr  ls
 290 -2.5869549e-01 5.32e+01 2.15e+01  -9.0 1.91e+03 -11.9 9.41e-02 8.91e-01h  1
 291 -2.5869656e-01 6.76e+01 1.89e+01  -9.0 1.19e+04    -  2.30e-04 1.12e-01h  1
 292 -2.5869756e-01 4.34e+01 1.18e+01  -9.0 4.05e+03    -  1.69e-01 3.76e-01H  1
Error in an AMPL evaluation. Run with "halt_on_ampl_error yes" to see details.
Warning: Cutting back alpha due to evaluation error
 293 -2.5869733e-01 4.55e+01 4.23e+01  -9.0 3.33e+03 -11.5 1.62e-02 2.19e-01h  2
 294 -2.5869727e-01 6.95e-01 3.39e+00  -9.0 1.35e+02 -11.1 5.00e-01 1.00e+00h  1
 295 -2.5869862e-01 5.22e+01 2.59e+00  -9.0 7.04e+03    -  8.73e-02 2.36e-01h  1
 296 -2.5869876e-01 4.94e+01 2.44e+00  -9.0 5.41e+03    -  1.96e-01 5.95e-02h  1
 297 -2.5869903e-01 4.32e+01 1.87e+00  -9.0 2.13e+03    -  4.05e-01 2.35e-01h  1
 298 -2.5869913e-01 4.01e+01 1.72e+00  -9.0 2.09e+03    -  2.89e-01 7.99e-02h  1
 299 -2.5869950e-01 3.19e+01 5.09e+00  -9.0 1.89e+03    -  1.22e-01 3.71e-01h  1
iter    objective    inf_pr   inf_du lg(mu)  ||d||  lg(rg) alpha_du alpha_pr  ls
 300 -2.5869955e-01 2.77e+01 5.30e+00  -9.0 1.50e+03    -  3.79e-01 1.90e-01h  1
 301 -2.5869971e-01 2.47e+01 5.73e+00  -9.0 1.45e+03    -  1.26e-01 4.15e-01h  1
 302 -2.5869978e-01 2.14e+01 4.35e+00  -9.0 1.37e+03    -  8.02e-02 2.26e-01h  1
 303 -2.5869947e-01 7.33e+00 2.12e+02  -9.0 5.72e+02    -  9.30e-03 1.00e+00h  1
 304 -2.5869955e-01 2.47e-03 2.95e-03  -9.0 1.01e+01    -  1.00e+00 1.00e+00h  1
 305 -2.5869969e-01 7.16e+00 1.73e-02  -9.0 2.30e+03    -  6.25e-01 2.42e-01h  1
 306 -2.5869963e-01 2.51e-01 3.34e-05  -9.0 1.09e+02    -  1.00e+00 1.00e+00h  1
 307 -2.5869966e-01 1.93e-01 4.80e-05  -9.0 8.96e+01    -  1.00e+00 1.00e+00h  1
 308 -2.5869966e-01 6.08e-04 8.91e-08  -9.0 4.84e+00    -  1.00e+00 1.00e+00h  1
 309 -2.5869966e-01 4.62e-09 1.38e-12  -9.0 1.33e-02    -  1.00e+00 1.00e+00h  1

Number of Iterations....: 309

                                   (scaled)                 (unscaled)
Objective...............:  -2.5869965714913579e-01   -2.5869965714913579e-01
Dual infeasibility......:   1.3753384325086342e-12    1.3753384325086342e-12
Constraint violation....:   2.4777387115000131e-09    4.6202330850064754e-09
Complementarity.........:   9.0909092738984225e-10    9.0909092738984225e-10
Overall NLP error.......:   2.4777387115000131e-09    4.6202330850064754e-09


Number of objective function evaluations             = 473
Number of objective gradient evaluations             = 310
Number of equality constraint evaluations            = 474
Number of inequality constraint evaluations          = 474
Number of equality constraint Jacobian evaluations   = 312
Number of inequality constraint Jacobian evaluations = 312
Number of Lagrangian Hessian evaluations             = 309
Total CPU secs in IPOPT (w/o function evaluations)   =    686.683
Total CPU secs in NLP function evaluations           =     10.896

EXIT: Optimal Solution Found.
